c This is a CNF SAT formula in the DIMACS CNF format,
c produced with the bc2cnf translator by Tommi Junttila;
c see http://users.ics.aalto.fi/tjunttil/circuits/index.html
c O <-> 1
c S12KSA <-> 2
c C8KSA <-> 3
c C7KSA <-> 6
c C6KSA <-> 9
c C5KSA <-> 12
c C4KSA <-> 15
c C3KSA <-> 18
c C2KSA <-> 21
c C1KSA <-> 24
c S12F <-> 27
c G12F <-> 28
c S12T <-> 31
c G12T <-> 32
c Gk12 <-> 35
c Pk12 <-> 37
c Gj12 <-> 38
c Pj12 <-> 41
c Gj10 <-> 43
c Pj10 <-> 46
c S12RCA <-> 48
c B12 <-> 50
c A12 <-> 51
c C12RCA <-> 52
c A11 <-> 55
c B11 <-> 57
c C11RCA <-> 58
c A10 <-> 61
c B10 <-> 63
c C10RCA <-> 64
c A9 <-> 67
c B9 <-> 69
c C9RCA <-> 70
c A8 <-> 73
c B8 <-> 75
c C8RCA <-> 76
c A7 <-> 79
c B7 <-> 81
c C7RCA <-> 82
c A6 <-> 85
c B6 <-> 87
c C6RCA <-> 88
c A5 <-> 91
c B5 <-> 93
c C5RCA <-> 94
c A4 <-> 97
c B4 <-> 99
c C4RCA <-> 100
c A3 <-> 103
c B3 <-> 105
c C3RCA <-> 106
c A2 <-> 109
c B2 <-> 111
c C2RCA <-> 112
c A1 <-> 115
c B1 <-> 117
c C1RCA <-> 118
c A0 <-> 121
c Cin <-> 123
c B0 <-> 124
p cnf 124 318
1 48 -2 0
1 -48 2 0
-1 48 2 0
-1 -48 -2 0
1 0
2 3 -27 0
2 -3 -31 0
-2 3 27 0
-2 -3 31 0
3 -4 0
3 -77 0
-3 77 4 0
-4 5 0
-4 6 0
4 -6 -5 0
5 81 -79 0
5 -81 79 0
-5 81 79 0
-5 -81 -79 0
6 -7 0
6 -83 0
-6 83 7 0
-7 8 0
-7 9 0
7 -9 -8 0
8 87 -85 0
8 -87 85 0
-8 87 85 0
-8 -87 -85 0
9 -10 0
9 -89 0
-9 89 10 0
-10 11 0
-10 12 0
10 -12 -11 0
11 93 -91 0
11 -93 91 0
-11 93 91 0
-11 -93 -91 0
12 -13 0
12 -95 0
-12 95 13 0
-13 14 0
-13 15 0
13 -15 -14 0
14 99 -97 0
14 -99 97 0
-14 99 97 0
-14 -99 -97 0
15 -16 0
15 -101 0
-15 101 16 0
-16 17 0
-16 18 0
16 -18 -17 0
17 105 -103 0
17 -105 103 0
-17 105 103 0
-17 -105 -103 0
18 -19 0
18 -107 0
-18 107 19 0
-19 20 0
-19 21 0
19 -21 -20 0
20 111 -109 0
20 -111 109 0
-20 111 109 0
-20 -111 -109 0
21 -22 0
21 -113 0
-21 113 22 0
-22 23 0
-22 24 0
22 -24 -23 0
23 117 -115 0
23 -117 115 0
-23 117 115 0
-23 -117 -115 0
24 -25 0
24 -119 0
-24 119 25 0
-25 26 0
-25 123 0
25 -123 -26 0
26 124 -121 0
26 -124 121 0
-26 124 121 0
-26 -124 -121 0
27 49 -28 0
27 -49 28 0
-27 49 28 0
-27 -49 -28 0
28 -29 0
28 -35 0
-28 35 29 0
-29 30 0
-29 37 0
29 -37 -30 0
-30 0
31 49 -32 0
31 -49 32 0
-31 49 32 0
-31 -49 -32 0
32 -33 0
32 -35 0
-32 35 33 0
-33 34 0
-33 37 0
33 -37 -34 0
34 0
35 -36 0
35 -38 0
-35 38 36 0
-36 41 0
-36 43 0
36 -43 -41 0
-37 41 0
-37 46 0
37 -46 -41 0
38 -39 0
38 -53 0
-38 53 39 0
-39 40 0
-39 59 0
39 -59 -40 0
40 57 -55 0
40 -57 55 0
-40 57 55 0
-40 -57 -55 0
-41 40 0
-41 42 0
41 -42 -40 0
42 63 -61 0
42 -63 61 0
-42 63 61 0
-42 -63 -61 0
43 -44 0
43 -65 0
-43 65 44 0
-44 45 0
-44 71 0
44 -71 -45 0
45 69 -67 0
45 -69 67 0
-45 69 67 0
-45 -69 -67 0
-46 45 0
-46 47 0
46 -47 -45 0
47 75 -73 0
47 -75 73 0
-47 75 73 0
-47 -75 -73 0
48 52 -49 0
48 -52 49 0
-48 52 49 0
-48 -52 -49 0
49 51 -50 0
49 -51 50 0
-49 51 50 0
-49 -51 -50 0
52 -53 0
52 -54 0
52 -56 0
-52 56 54 53 0
-53 55 0
-53 57 0
53 -57 -55 0
-54 55 0
-54 58 0
54 -58 -55 0
-56 57 0
-56 58 0
56 -58 -57 0
58 -59 0
58 -60 0
58 -62 0
-58 62 60 59 0
-59 61 0
-59 63 0
59 -63 -61 0
-60 61 0
-60 64 0
60 -64 -61 0
-62 63 0
-62 64 0
62 -64 -63 0
64 -65 0
64 -66 0
64 -68 0
-64 68 66 65 0
-65 67 0
-65 69 0
65 -69 -67 0
-66 67 0
-66 70 0
66 -70 -67 0
-68 69 0
-68 70 0
68 -70 -69 0
70 -71 0
70 -72 0
70 -74 0
-70 74 72 71 0
-71 73 0
-71 75 0
71 -75 -73 0
-72 73 0
-72 76 0
72 -76 -73 0
-74 75 0
-74 76 0
74 -76 -75 0
76 -77 0
76 -78 0
76 -80 0
-76 80 78 77 0
-77 79 0
-77 81 0
77 -81 -79 0
-78 79 0
-78 82 0
78 -82 -79 0
-80 81 0
-80 82 0
80 -82 -81 0
82 -83 0
82 -84 0
82 -86 0
-82 86 84 83 0
-83 85 0
-83 87 0
83 -87 -85 0
-84 85 0
-84 88 0
84 -88 -85 0
-86 87 0
-86 88 0
86 -88 -87 0
88 -89 0
88 -90 0
88 -92 0
-88 92 90 89 0
-89 91 0
-89 93 0
89 -93 -91 0
-90 91 0
-90 94 0
90 -94 -91 0
-92 93 0
-92 94 0
92 -94 -93 0
94 -95 0
94 -96 0
94 -98 0
-94 98 96 95 0
-95 97 0
-95 99 0
95 -99 -97 0
-96 97 0
-96 100 0
96 -100 -97 0
-98 99 0
-98 100 0
98 -100 -99 0
100 -101 0
100 -102 0
100 -104 0
-100 104 102 101 0
-101 103 0
-101 105 0
101 -105 -103 0
-102 103 0
-102 106 0
102 -106 -103 0
-104 105 0
-104 106 0
104 -106 -105 0
106 -107 0
106 -108 0
106 -110 0
-106 110 108 107 0
-107 109 0
-107 111 0
107 -111 -109 0
-108 109 0
-108 112 0
108 -112 -109 0
-110 111 0
-110 112 0
110 -112 -111 0
112 -113 0
112 -114 0
112 -116 0
-112 116 114 113 0
-113 115 0
-113 117 0
113 -117 -115 0
-114 115 0
-114 118 0
114 -118 -115 0
-116 117 0
-116 118 0
116 -118 -117 0
118 -119 0
118 -120 0
118 -122 0
-118 122 120 119 0
-119 121 0
-119 124 0
119 -124 -121 0
-120 121 0
-120 123 0
120 -123 -121 0
-122 123 0
-122 124 0
122 -124 -123 0